unsat
(error "line 2310 column 17: model is not available")
(error "line 2311 column 17: model is not available")
(error "line 2312 column 18: model is not available")
(error "line 2313 column 19: model is not available")
(error "line 2314 column 19: model is not available")
(error "line 2315 column 19: model is not available")
(error "line 2316 column 19: model is not available")
(error "line 2317 column 19: model is not available")
(error "line 2318 column 19: model is not available")
(error "line 2319 column 19: model is not available")
(error "line 2320 column 19: model is not available")
(error "line 2321 column 19: model is not available")
(error "line 2322 column 19: model is not available")
(error "line 2323 column 18: model is not available")
(error "line 2324 column 19: model is not available")
(error "line 2325 column 19: model is not available")
(error "line 2326 column 18: model is not available")
(error "line 2327 column 18: model is not available")
(error "line 2328 column 18: model is not available")
(error "line 2329 column 18: model is not available")
(error "line 2330 column 18: model is not available")
(error "line 2331 column 18: model is not available")
(error "line 2332 column 18: model is not available")
(error "line 2333 column 18: model is not available")
(error "line 2334 column 17: model is not available")
(error "line 2335 column 18: model is not available")
(error "line 2336 column 18: model is not available")
(error "line 2337 column 18: model is not available")
(error "line 2338 column 18: model is not available")
(error "line 2339 column 18: model is not available")
(error "line 2340 column 18: model is not available")
(error "line 2341 column 18: model is not available")
(error "line 2342 column 18: model is not available")
(error "line 2343 column 18: model is not available")
(error "line 2344 column 18: model is not available")
(error "line 2345 column 17: model is not available")
(error "line 2346 column 18: model is not available")
(error "line 2347 column 18: model is not available")
(error "line 2348 column 18: model is not available")
(error "line 2349 column 18: model is not available")
(error "line 2350 column 18: model is not available")
(error "line 2351 column 18: model is not available")
(error "line 2352 column 18: model is not available")
(error "line 2353 column 18: model is not available")
(error "line 2354 column 18: model is not available")
(error "line 2355 column 18: model is not available")
(error "line 2356 column 17: model is not available")
(error "line 2357 column 18: model is not available")
(error "line 2358 column 18: model is not available")
(error "line 2359 column 18: model is not available")
(error "line 2360 column 18: model is not available")
(error "line 2361 column 18: model is not available")
(error "line 2362 column 18: model is not available")
(error "line 2363 column 18: model is not available")
(error "line 2364 column 18: model is not available")
(error "line 2365 column 18: model is not available")
(error "line 2366 column 18: model is not available")
(error "line 2367 column 17: model is not available")
(error "line 2368 column 18: model is not available")
(error "line 2369 column 18: model is not available")
(error "line 2370 column 18: model is not available")
(error "line 2371 column 18: model is not available")
(error "line 2372 column 18: model is not available")
(error "line 2373 column 18: model is not available")
(error "line 2374 column 18: model is not available")
(error "line 2375 column 18: model is not available")
(error "line 2376 column 18: model is not available")
(error "line 2377 column 18: model is not available")
(error "line 2378 column 17: model is not available")
(error "line 2379 column 18: model is not available")
(error "line 2380 column 18: model is not available")
(error "line 2381 column 18: model is not available")
(error "line 2382 column 18: model is not available")
(error "line 2383 column 18: model is not available")
(error "line 2384 column 18: model is not available")
(error "line 2385 column 18: model is not available")
(error "line 2386 column 18: model is not available")
(error "line 2387 column 18: model is not available")
(error "line 2388 column 18: model is not available")
(error "line 2389 column 17: model is not available")
(error "line 2390 column 18: model is not available")
(error "line 2391 column 18: model is not available")
(error "line 2392 column 18: model is not available")
(error "line 2393 column 18: model is not available")
(error "line 2394 column 18: model is not available")
(error "line 2395 column 18: model is not available")
(error "line 2396 column 18: model is not available")
(error "line 2397 column 18: model is not available")
(error "line 2398 column 18: model is not available")
(error "line 2399 column 18: model is not available")
(error "line 2400 column 17: model is not available")
(error "line 2401 column 18: model is not available")
(error "line 2402 column 18: model is not available")
(error "line 2403 column 18: model is not available")
(error "line 2404 column 18: model is not available")
(error "line 2405 column 18: model is not available")
(error "line 2406 column 18: model is not available")
(error "line 2407 column 18: model is not available")
(error "line 2408 column 18: model is not available")
(error "line 2409 column 18: model is not available")
(error "line 2410 column 18: model is not available")
(error "line 2411 column 17: model is not available")
(error "line 2412 column 18: model is not available")
(error "line 2413 column 18: model is not available")
(error "line 2414 column 18: model is not available")
(error "line 2415 column 18: model is not available")
(error "line 2416 column 18: model is not available")
(error "line 2417 column 18: model is not available")
(error "line 2418 column 18: model is not available")
(error "line 2419 column 18: model is not available")
(error "line 2420 column 18: model is not available")
(error "line 2421 column 18: model is not available")
(error "line 2422 column 38: model is not available")
(error "line 2423 column 45: model is not available")
(error "line 2424 column 38: model is not available")
(error "line 2425 column 45: model is not available")
(error "line 2426 column 46: model is not available")
(error "line 2427 column 53: model is not available")
(error "line 2428 column 40: model is not available")
(error "line 2429 column 47: model is not available")
(error "line 2430 column 38: model is not available")
(error "line 2431 column 45: model is not available")
(error "line 2432 column 38: model is not available")
(error "line 2433 column 45: model is not available")
(error "line 2434 column 41: model is not available")
(error "line 2435 column 48: model is not available")
(error "line 2436 column 41: model is not available")
(error "line 2437 column 48: model is not available")
(error "line 2438 column 41: model is not available")
(error "line 2439 column 48: model is not available")
(error "line 2440 column 41: model is not available")
(error "line 2441 column 41: model is not available")
(error "line 2442 column 48: model is not available")
(error "line 2443 column 41: model is not available")
(error "line 2444 column 48: model is not available")
(error "line 2445 column 41: model is not available")
(error "line 2446 column 41: model is not available")
(error "line 2447 column 48: model is not available")
(error "line 2448 column 37: model is not available")
(error "line 2449 column 44: model is not available")
(error "line 2450 column 42: model is not available")
(error "line 2451 column 42: model is not available")
(error "line 2452 column 42: model is not available")
(error "line 2453 column 42: model is not available")
(error "line 2454 column 38: model is not available")
(error "line 2455 column 38: model is not available")
(error "line 2456 column 38: model is not available")
(error "line 2457 column 38: model is not available")
(error "line 2458 column 38: model is not available")
(error "line 2459 column 38: model is not available")
(error "line 2460 column 38: model is not available")
(error "line 2461 column 41: model is not available")
(error "line 2462 column 48: model is not available")
(error "line 2463 column 41: model is not available")
(error "line 2464 column 48: model is not available")
(error "line 2465 column 41: model is not available")
(error "line 2466 column 48: model is not available")
(error "line 2467 column 41: model is not available")
(error "line 2468 column 48: model is not available")
(error "line 2469 column 41: model is not available")
(error "line 2470 column 48: model is not available")
(error "line 2471 column 41: model is not available")
(error "line 2472 column 48: model is not available")
(error "line 2473 column 41: model is not available")
(error "line 2474 column 48: model is not available")
(error "line 2475 column 53: model is not available")
(error "line 2476 column 53: model is not available")
(error "line 2477 column 53: model is not available")
(error "line 2478 column 38: model is not available")
(error "line 2479 column 39: model is not available")
(error "line 2480 column 39: model is not available")
(error "line 2481 column 39: model is not available")
(error "line 2482 column 38: model is not available")
(error "line 2483 column 38: model is not available")
(error "line 2484 column 38: model is not available")
(error "line 2485 column 38: model is not available")
(error "line 2486 column 38: model is not available")
(error "line 2487 column 38: model is not available")
(error "line 2488 column 38: model is not available")
(error "line 2489 column 38: model is not available")
(error "line 2490 column 18: model is not available")
(error "line 2491 column 25: model is not available")
(error "line 2492 column 19: model is not available")
(error "line 2493 column 26: model is not available")
(error "line 2494 column 19: model is not available")
(error "line 2495 column 26: model is not available")
(error "line 2496 column 19: model is not available")
(error "line 2497 column 19: model is not available")
(error "line 2498 column 26: model is not available")
(error "line 2499 column 19: model is not available")
(error "line 2500 column 26: model is not available")
(error "line 2501 column 19: model is not available")
(error "line 2502 column 19: model is not available")
(error "line 2503 column 26: model is not available")
(error "line 2504 column 19: model is not available")
(error "line 2505 column 26: model is not available")
(error "line 2506 column 19: model is not available")
(error "line 2507 column 19: model is not available")
(error "line 2508 column 26: model is not available")
(error "line 2509 column 18: model is not available")
(error "line 2510 column 25: model is not available")
(error "line 2511 column 18: model is not available")
(error "line 2512 column 18: model is not available")
(error "line 2513 column 25: model is not available")
(error "line 2514 column 18: model is not available")
(error "line 2515 column 25: model is not available")
(error "line 2516 column 18: model is not available")
(error "line 2517 column 18: model is not available")
(error "line 2518 column 25: model is not available")
(error "line 2519 column 18: model is not available")
(error "line 2520 column 25: model is not available")
(error "line 2521 column 18: model is not available")
(error "line 2522 column 36: model is not available")
(error "line 2523 column 36: model is not available")
(error "line 2524 column 36: model is not available")
(error "line 2525 column 29: model is not available")
(error "line 2526 column 31: model is not available")
(error "line 2527 column 38: model is not available")
(error "line 2528 column 31: model is not available")
(error "line 2529 column 38: model is not available")
(error "line 2530 column 31: model is not available")
(error "line 2531 column 38: model is not available")
(error "line 2532 column 31: model is not available")
(error "line 2533 column 38: model is not available")
(error "line 2534 column 53: model is not available")
(error "line 2535 column 51: model is not available")
(error "line 2536 column 53: model is not available")
(error "line 2537 column 53: model is not available")
(error "line 2538 column 52: model is not available")
(error "line 2539 column 51: model is not available")
(error "line 2540 column 51: model is not available")
(error "line 2541 column 51: model is not available")
(error "line 2542 column 51: model is not available")
(error "line 2543 column 51: model is not available")
(error "line 2544 column 51: model is not available")
(error "line 2545 column 51: model is not available")
(error "line 2546 column 51: model is not available")
(error "line 2547 column 51: model is not available")
(error "line 2548 column 51: model is not available")
(error "line 2549 column 51: model is not available")
(error "line 2550 column 50: model is not available")
(error "line 2551 column 50: model is not available")
(error "line 2552 column 50: model is not available")
(error "line 2553 column 51: model is not available")
(error "line 2554 column 51: model is not available")
(error "line 2555 column 51: model is not available")
(error "line 2556 column 51: model is not available")
(error "line 2557 column 51: model is not available")
(error "line 2558 column 51: model is not available")
(error "line 2559 column 51: model is not available")
(error "line 2560 column 51: model is not available")
(error "line 2561 column 51: model is not available")
(error "line 2562 column 51: model is not available")
(error "line 2563 column 51: model is not available")
(error "line 2564 column 50: model is not available")
(error "line 2565 column 50: model is not available")
(error "line 2566 column 50: model is not available")
(error "line 2567 column 51: model is not available")
(error "line 2568 column 51: model is not available")
(error "line 2569 column 51: model is not available")
(error "line 2570 column 51: model is not available")
(error "line 2571 column 51: model is not available")
(error "line 2572 column 51: model is not available")
(error "line 2573 column 51: model is not available")
(error "line 2574 column 51: model is not available")
(error "line 2575 column 51: model is not available")
(error "line 2576 column 51: model is not available")
(error "line 2577 column 51: model is not available")
(error "line 2578 column 50: model is not available")
(error "line 2579 column 50: model is not available")
(error "line 2580 column 50: model is not available")
(error "line 2581 column 55: model is not available")
(error "line 2582 column 55: model is not available")
(error "line 2583 column 55: model is not available")
(error "line 2584 column 55: model is not available")
(error "line 2585 column 55: model is not available")
(error "line 2586 column 55: model is not available")
(error "line 2587 column 55: model is not available")
(error "line 2588 column 55: model is not available")
(error "line 2589 column 55: model is not available")
(error "line 2590 column 55: model is not available")
(error "line 2591 column 55: model is not available")
(error "line 2592 column 55: model is not available")
(error "line 2593 column 55: model is not available")
(error "line 2594 column 55: model is not available")
(error "line 2595 column 55: model is not available")
(error "line 2596 column 55: model is not available")
(error "line 2597 column 55: model is not available")
(error "line 2598 column 55: model is not available")
(error "line 2599 column 55: model is not available")
(error "line 2600 column 55: model is not available")
(error "line 2601 column 55: model is not available")
(error "line 2602 column 55: model is not available")
(error "line 2603 column 55: model is not available")
(error "line 2604 column 55: model is not available")
(error "line 2605 column 36: model is not available")
(error "line 2606 column 36: model is not available")
(error "line 2607 column 36: model is not available")
(error "line 2608 column 36: model is not available")
(error "line 2609 column 36: model is not available")
(error "line 2610 column 36: model is not available")
(error "line 2611 column 46: model is not available")
(error "line 2612 column 46: model is not available")
(error "line 2613 column 46: model is not available")
(error "line 2614 column 46: model is not available")
(error "line 2615 column 46: model is not available")
(error "line 2616 column 46: model is not available")
(error "line 2617 column 54: model is not available")
(error "line 2618 column 54: model is not available")
(error "line 2619 column 54: model is not available")
(error "line 2620 column 54: model is not available")
(error "line 2621 column 54: model is not available")
(error "line 2622 column 54: model is not available")
(error "line 2623 column 54: model is not available")
(error "line 2624 column 54: model is not available")
(error "line 2625 column 54: model is not available")
(error "line 2626 column 40: model is not available")
(error "line 2627 column 40: model is not available")
(error "line 2628 column 40: model is not available")
(error "line 2629 column 40: model is not available")
(error "line 2630 column 40: model is not available")
(error "line 2631 column 40: model is not available")
(error "line 2632 column 41: model is not available")
(error "line 2633 column 41: model is not available")
(error "line 2634 column 41: model is not available")
(error "line 2635 column 41: model is not available")
(error "line 2636 column 41: model is not available")
(error "line 2637 column 41: model is not available")
(error "line 2638 column 50: model is not available")
(error "line 2639 column 50: model is not available")
(error "line 2640 column 50: model is not available")
(error "line 2641 column 50: model is not available")
(error "line 2642 column 50: model is not available")
(error "line 2643 column 50: model is not available")
(error "line 2644 column 43: model is not available")
(error "line 2645 column 43: model is not available")
(error "line 2646 column 43: model is not available")
(error "line 2647 column 43: model is not available")
(error "line 2648 column 43: model is not available")
(error "line 2649 column 43: model is not available")
(error "line 2650 column 30: model is not available")
(error "line 2651 column 30: model is not available")
(error "line 2652 column 30: model is not available")
(error "line 2653 column 36: model is not available")
(error "line 2654 column 36: model is not available")
(error "line 2655 column 36: model is not available")
(error "line 2656 column 36: model is not available")
(error "line 2657 column 36: model is not available")
(error "line 2658 column 36: model is not available")
(error "line 2659 column 31: model is not available")
(error "line 2660 column 31: model is not available")
(error "line 2661 column 31: model is not available")
(error "line 2662 column 31: model is not available")
(error "line 2663 column 31: model is not available")
(error "line 2664 column 31: model is not available")
(error "line 2665 column 31: model is not available")
(error "line 2666 column 31: model is not available")
(error "line 2667 column 31: model is not available")
(error "line 2668 column 31: model is not available")
(error "line 2669 column 31: model is not available")
(error "line 2670 column 31: model is not available")
(error "line 2671 column 31: model is not available")
(error "line 2672 column 31: model is not available")
(error "line 2673 column 31: model is not available")
(error "line 2674 column 31: model is not available")
(error "line 2675 column 31: model is not available")
(error "line 2676 column 31: model is not available")
(error "line 2677 column 31: model is not available")
(error "line 2678 column 31: model is not available")
(error "line 2679 column 31: model is not available")
(error "line 2680 column 31: model is not available")
(error "line 2681 column 31: model is not available")
(error "line 2682 column 31: model is not available")
(error "line 2683 column 31: model is not available")
(error "line 2684 column 31: model is not available")
(error "line 2685 column 31: model is not available")
(error "line 2686 column 30: model is not available")
(error "line 2687 column 30: model is not available")
(error "line 2688 column 30: model is not available")
(error "line 2690 column 10: model is not available")
(:max-memory   3.04
 :memory       2.94
 :mk-bool-var  1
 :num-allocs   301509
 :rlimit-count 63973
 :time         0.01
 :total-time   0.02)

real	0m0.022s
user	0m0.015s
sys	0m0.007s
State: RE Run_time: 0.023914098739624023